% From JaCoP's nonogramRepository/data081.nin
 rows = 25;
 row_rule_len = 5;
 row_rules = array2d(1..rows, 1..row_rule_len, 
[
 0,0,0,6,5,
 0,0,4,7,4,
 0,0,0,0,20,
 0,0,0,4,16,
 0,0,4,8,5,
 0,4,7,3,2,
 0,8,6,4,2,
 0,10,1,4,3,
 0,12,1,3,2,
 5,1,5,2,1,
 9,1,1,2,4,
 3,1,6,2,5,
 5,1,4,2,1,
 6,3,3,2,2,
 0,1,5,4,3,
 0,2,7,3,3,
 0,3,4,2,7,
 0,0,0,5,8,
 0,0,0,3,3,
 0,0,0,3,4,
 0,0,0,0,6,
 0,0,0,0,4,
 0,0,0,0,4,
 0,0,0,0,4,
 0,0,0,0,8
]);

 cols = 25;
 col_rule_len = 5;
 col_rules = array2d(1..cols, 1..col_rule_len, 
[
 0,0,0,4,4,
 0,0,0,0,12,
 0,0,0,12,2,
 0,0,10,2,1,
 0,0,4,8,2,
 0,4,5,2,1,
 3,3,1,2,1,
 0,1,2,5,6,
 4,2,2,7,1,
 0,9,6,3,1,
 0,7,4,2,6,
 0,9,1,1,5,
 6,1,1,2,6,
 0,7,4,2,6,
 7,2,2,4,1,
 1,4,4,4,1,
 0,0,1,3,9,
 0,0,4,5,4,
 0,0,3,5,5,
 0,0,8,2,2,
 0,0,7,2,3,
 0,0,3,2,3,
 0,0,5,2,3,
 0,0,0,5,5,
 0,0,0,0,5
]);

